<?xml version = "1.0" encoding="UTF-8" standalone="yes"?>
<CPLEXSolution version="1.2">
 <header
   problemName="ilog.cplex"
   objectiveValue="8.17166666666668"
   solutionTypeValue="1"
   solutionTypeString="basic"
   solutionStatusValue="1"
   solutionStatusString="optimal"
   solutionMethodString="dual"
   primalFeasible="1"
   dualFeasible="1"
   simplexIterations="13"
   writeLevel="1"/>
 <quality
   epRHS="1e-06"
   epOpt="1e-06"
   maxPrimalInfeas="4.44089209850063e-16"
   maxDualInfeas="4.44089209850063e-16"
   maxPrimalResidual="6.10622663543836e-16"
   maxDualResidual="4.44089209850063e-16"
   maxX="1.43181818181818"
   maxPi="5.86666666666667"
   maxSlack="1.53409090909091"
   maxRedCost="12.9066666666667"
   kappa="182.665099882491"/>
 <linearConstraints>
  <constraint name="flowValue_R1A_BB1" index="0" status="LL" slack="0" dual="4.10666666666667"/>
  <constraint name="flowValue_BB3_BB4" index="1" status="LL" slack="0" dual="0.586666666666667"/>
  <constraint name="flowValue_R1B_BB1" index="2" status="BS" slack="0" dual="0"/>
  <constraint name="flowValue_BB3_BB2" index="3" status="LL" slack="0" dual="-1.76"/>
  <constraint name="flowValue_R2A_BB2" index="4" status="LL" slack="0" dual="0.733333333333333"/>
  <constraint name="flowValue_R3A_BB3" index="5" status="LL" slack="0" dual="1.17333333333333"/>
  <constraint name="flowValue_R4B_BB4" index="6" status="LL" slack="0" dual="1.76"/>
  <constraint name="flowValue_BB4_BB3" index="7" status="LL" slack="0" dual="-2.93333333333333"/>
  <constraint name="flowValue_R2B_BB2" index="8" status="LL" slack="0" dual="1.17333333333333"/>
  <constraint name="flowValue_BB1_BB2" index="9" status="LL" slack="0" dual="-4.69333333333333"/>
  <constraint name="flowValue_BB3_R3A" index="10" status="LL" slack="0" dual="2.34666666666667"/>
  <constraint name="flowValue_BB3_R3B" index="11" status="BS" slack="-4.44089209850063e-16" dual="0"/>
  <constraint name="flowValue_BB2_BB1" index="12" status="LL" slack="0" dual="-1.17333333333333"/>
  <constraint name="flowValue_BB1_BB4" index="13" status="LL" slack="0" dual="-5.86666666666667"/>
  <constraint name="flowValue_BB1_R1A" index="14" status="LL" slack="0" dual="1.76"/>
  <constraint name="flowValue_BB4_R4B" index="15" status="LL" slack="0" dual="-1.76"/>
  <constraint name="flowValue_BB1_R1B" index="16" status="LL" slack="0" dual="-2.93333333333333"/>
  <constraint name="flowValue_R3B_BB3" index="17" status="LL" slack="0" dual="-2.34666666666667"/>
  <constraint name="flowValue_BB4_R4A" index="18" status="BS" slack="-2.22044604925031e-16" dual="0"/>
  <constraint name="flowValue_BB2_BB3" index="19" status="LL" slack="0" dual="-1.76"/>
  <constraint name="flowValue_R4A_BB4" index="20" status="LL" slack="0" dual="1.76"/>
  <constraint name="flowValue_BB2_R2A" index="21" status="BS" slack="4.44089209850063e-16" dual="0"/>
  <constraint name="flowValue_BB2_R2B" index="22" status="LL" slack="0" dual="1.46666666666667"/>
  <constraint name="flowValue_BB4_BB1" index="23" status="BS" slack="4.44089209850063e-16" dual="0"/>
  <constraint name="r24" index="24" status="BS" slack="-0.505681818181818" dual="-0"/>
  <constraint name="flowValueConstr_R3A_R1B_goalGreaterValue" index="25" status="LL" slack="0" dual="1.17333333333333"/>
  <constraint name="flowValueConstr_R3A_R1B_goalSmallerValue" index="26" status="BS" slack="0.522727272727274" dual="0"/>
  <constraint name="r27" index="27" status="BS" slack="-1.125" dual="-0"/>
  <constraint name="flowValueConstr_R3A_R3B_goalGreaterValue" index="28" status="BS" slack="-0.715909090909093" dual="-0"/>
  <constraint name="flowValueConstr_R3A_R3B_goalSmallerValue" index="29" status="LL" slack="0" dual="-1.17333333333333"/>
  <constraint name="r30" index="30" status="BS" slack="-0.403409090909091" dual="-0"/>
  <constraint name="flowValueConstr_R3A_R1A_goalGreaterValue" index="31" status="BS" slack="-0.295454545454546" dual="-0"/>
  <constraint name="flowValueConstr_R3A_R1A_goalSmallerValue" index="32" status="LL" slack="0" dual="-3.52"/>
  <constraint name="r33" index="33" status="BS" slack="-1.31818181818182" dual="-0"/>
  <constraint name="flowValueConstr_R3A_R2B_goalGreaterValue" index="34" status="BS" slack="-0.590909090909091" dual="-0"/>
  <constraint name="flowValueConstr_R3A_R2B_goalSmallerValue" index="35" status="LL" slack="0" dual="-0.88"/>
  <constraint name="r36" index="36" status="BS" slack="0" dual="-0"/>
  <constraint name="flowValueConstr_R3A_R4B_goalGreaterValue" index="37" status="BS" slack="0" dual="-0"/>
  <constraint name="flowValueConstr_R3A_R4B_goalSmallerValue" index="38" status="BS" slack="0" dual="0"/>
  <constraint name="r39" index="39" status="BS" slack="-0.710227272727273" dual="-0"/>
  <constraint name="flowValueConstr_R3A_R4A_goalGreaterValue" index="40" status="BS" slack="-0.397727272727272" dual="-0"/>
  <constraint name="flowValueConstr_R3A_R4A_goalSmallerValue" index="41" status="LL" slack="0" dual="-1.76"/>
  <constraint name="r42" index="42" status="BS" slack="-0.511363636363636" dual="-0"/>
  <constraint name="flowValueConstr_R3A_R2A_goalGreaterValue" index="43" status="LL" slack="0" dual="0.586666666666667"/>
  <constraint name="flowValueConstr_R3A_R2A_goalSmallerValue" index="44" status="BS" slack="0" dual="0"/>
  <constraint name="r45" index="45" status="BS" slack="0" dual="-0"/>
  <constraint name="flowValueConstr_R1B_R3A_goalGreaterValue" index="46" status="BS" slack="0" dual="-0"/>
  <constraint name="flowValueConstr_R1B_R3A_goalSmallerValue" index="47" status="BS" slack="0" dual="0"/>
  <constraint name="r48" index="48" status="BS" slack="0" dual="-0"/>
  <constraint name="flowValueConstr_R1B_R3B_goalGreaterValue" index="49" status="BS" slack="0" dual="-0"/>
  <constraint name="flowValueConstr_R1B_R3B_goalSmallerValue" index="50" status="BS" slack="0" dual="0"/>
  <constraint name="r51" index="51" status="BS" slack="0" dual="-0"/>
  <constraint name="flowValueConstr_R1B_R1A_goalGreaterValue" index="52" status="BS" slack="0" dual="-0"/>
  <constraint name="flowValueConstr_R1B_R1A_goalSmallerValue" index="53" status="LL" slack="0" dual="-1.76"/>
  <constraint name="r54" index="54" status="BS" slack="0" dual="-0"/>
  <constraint name="flowValueConstr_R1B_R2B_goalGreaterValue" index="55" status="BS" slack="0" dual="-0"/>
  <constraint name="flowValueConstr_R1B_R2B_goalSmallerValue" index="56" status="BS" slack="0" dual="0"/>
  <constraint name="r57" index="57" status="BS" slack="0" dual="-0"/>
  <constraint name="flowValueConstr_R1B_R4B_goalGreaterValue" index="58" status="BS" slack="0" dual="-0"/>
  <constraint name="flowValueConstr_R1B_R4B_goalSmallerValue" index="59" status="BS" slack="0" dual="0"/>
  <constraint name="r60" index="60" status="BS" slack="0" dual="-0"/>
  <constraint name="flowValueConstr_R1B_R4A_goalGreaterValue" index="61" status="BS" slack="0" dual="-0"/>
  <constraint name="flowValueConstr_R1B_R4A_goalSmallerValue" index="62" status="BS" slack="0" dual="0"/>
  <constraint name="r63" index="63" status="BS" slack="0" dual="-0"/>
  <constraint name="flowValueConstr_R1B_R2A_goalGreaterValue" index="64" status="BS" slack="0" dual="-0"/>
  <constraint name="flowValueConstr_R1B_R2A_goalSmallerValue" index="65" status="BS" slack="0" dual="0"/>
  <constraint name="r66" index="66" status="BS" slack="0" dual="-0"/>
  <constraint name="flowValueConstr_R3B_R3A_goalGreaterValue" index="67" status="BS" slack="0" dual="-0"/>
  <constraint name="flowValueConstr_R3B_R3A_goalSmallerValue" index="68" status="BS" slack="0" dual="0"/>
  <constraint name="r69" index="69" status="BS" slack="0" dual="-0"/>
  <constraint name="flowValueConstr_R3B_R1B_goalGreaterValue" index="70" status="BS" slack="0" dual="-0"/>
  <constraint name="flowValueConstr_R3B_R1B_goalSmallerValue" index="71" status="BS" slack="0" dual="0"/>
  <constraint name="r72" index="72" status="BS" slack="0" dual="-0"/>
  <constraint name="flowValueConstr_R3B_R1A_goalGreaterValue" index="73" status="BS" slack="0" dual="-0"/>
  <constraint name="flowValueConstr_R3B_R1A_goalSmallerValue" index="74" status="BS" slack="0" dual="0"/>
  <constraint name="r75" index="75" status="BS" slack="0" dual="-0"/>
  <constraint name="flowValueConstr_R3B_R2B_goalGreaterValue" index="76" status="BS" slack="0" dual="-0"/>
  <constraint name="flowValueConstr_R3B_R2B_goalSmallerValue" index="77" status="BS" slack="0" dual="0"/>
  <constraint name="r78" index="78" status="BS" slack="0" dual="-0"/>
  <constraint name="flowValueConstr_R3B_R4B_goalGreaterValue" index="79" status="BS" slack="0" dual="-0"/>
  <constraint name="flowValueConstr_R3B_R4B_goalSmallerValue" index="80" status="BS" slack="0" dual="0"/>
  <constraint name="r81" index="81" status="BS" slack="0" dual="-0"/>
  <constraint name="flowValueConstr_R3B_R4A_goalGreaterValue" index="82" status="BS" slack="0" dual="-0"/>
  <constraint name="flowValueConstr_R3B_R4A_goalSmallerValue" index="83" status="BS" slack="0" dual="0"/>
  <constraint name="r84" index="84" status="BS" slack="0" dual="-0"/>
  <constraint name="flowValueConstr_R3B_R2A_goalGreaterValue" index="85" status="BS" slack="0" dual="-0"/>
  <constraint name="flowValueConstr_R3B_R2A_goalSmallerValue" index="86" status="BS" slack="0" dual="0"/>
  <constraint name="r87" index="87" status="BS" slack="-1.27840909090909" dual="-0"/>
  <constraint name="flowValueConstr_R1A_R3A_goalGreaterValue" index="88" status="LL" slack="0" dual="0.352"/>
  <constraint name="flowValueConstr_R1A_R3A_goalSmallerValue" index="89" status="LL" slack="0" dual="-0.352"/>
  <constraint name="r90" index="90" status="BS" slack="-1.21022727272727" dual="-0"/>
  <constraint name="flowValueConstr_R1A_R1B_goalGreaterValue" index="91" status="BS" slack="-0.886363636363637" dual="-0"/>
  <constraint name="flowValueConstr_R1A_R1B_goalSmallerValue" index="92" status="LL" slack="0" dual="-1.17333333333333"/>
  <constraint name="r93" index="93" status="LL" slack="0" dual="1.17333333333333"/>
  <constraint name="flowValueConstr_R1A_R3B_goalGreaterValue" index="94" status="LL" slack="0" dual="1.17333333333333"/>
  <constraint name="flowValueConstr_R1A_R3B_goalSmallerValue" index="95" status="BS" slack="1.53409090909091" dual="0"/>
  <constraint name="r96" index="96" status="BS" slack="-1.07954545454545" dual="-0"/>
  <constraint name="flowValueConstr_R1A_R2B_goalGreaterValue" index="97" status="BS" slack="-0.113636363636363" dual="-0"/>
  <constraint name="flowValueConstr_R1A_R2B_goalSmallerValue" index="98" status="LL" slack="0" dual="-0.88"/>
  <constraint name="r99" index="99" status="BS" slack="0" dual="-0"/>
  <constraint name="flowValueConstr_R1A_R4B_goalGreaterValue" index="100" status="BS" slack="0" dual="-0"/>
  <constraint name="flowValueConstr_R1A_R4B_goalSmallerValue" index="101" status="BS" slack="0" dual="0"/>
  <constraint name="r102" index="102" status="BS" slack="-0.380681818181819" dual="-0"/>
  <constraint name="flowValueConstr_R1A_R4A_goalGreaterValue" index="103" status="LL" slack="0" dual="1.76"/>
  <constraint name="flowValueConstr_R1A_R4A_goalSmallerValue" index="104" status="BS" slack="0.261363636363635" dual="0"/>
  <constraint name="r105" index="105" status="BS" slack="-0.511363636363636" dual="-0"/>
  <constraint name="flowValueConstr_R1A_R2A_goalGreaterValue" index="106" status="LL" slack="0" dual="0.586666666666667"/>
  <constraint name="flowValueConstr_R1A_R2A_goalSmallerValue" index="107" status="BS" slack="0" dual="0"/>
  <constraint name="r108" index="108" status="BS" slack="-0.977272727272727" dual="-0"/>
  <constraint name="flowValueConstr_R2B_R3A_goalGreaterValue" index="109" status="BS" slack="-0.931818181818182" dual="-0"/>
  <constraint name="flowValueConstr_R2B_R3A_goalSmallerValue" index="110" status="LL" slack="0" dual="-1.76"/>
  <constraint name="r111" index="111" status="BS" slack="-0.022727272727273" dual="-0"/>
  <constraint name="flowValueConstr_R2B_R1B_goalGreaterValue" index="112" status="LL" slack="0" dual="2.93333333333333"/>
  <constraint name="flowValueConstr_R2B_R1B_goalSmallerValue" index="113" status="BS" slack="0.568181818181818" dual="0"/>
  <constraint name="r114" index="114" status="BS" slack="-0.306818181818182" dual="-0"/>
  <constraint name="flowValueConstr_R2B_R3B_goalGreaterValue" index="115" status="LL" slack="0" dual="0.586666666666667"/>
  <constraint name="flowValueConstr_R2B_R3B_goalSmallerValue" index="116" status="BS" slack="0" dual="0"/>
  <constraint name="r117" index="117" status="BS" slack="-0.102272727272727" dual="-0"/>
  <constraint name="flowValueConstr_R2B_R1A_goalGreaterValue" index="118" status="BS" slack="0" dual="-0"/>
  <constraint name="flowValueConstr_R2B_R1A_goalSmallerValue" index="119" status="LL" slack="0" dual="-1.76"/>
  <constraint name="r120" index="120" status="BS" slack="0" dual="-0"/>
  <constraint name="flowValueConstr_R2B_R4B_goalGreaterValue" index="121" status="BS" slack="0" dual="-0"/>
  <constraint name="flowValueConstr_R2B_R4B_goalSmallerValue" index="122" status="BS" slack="0" dual="0"/>
  <constraint name="r123" index="123" status="BS" slack="-0.204545454545455" dual="-0"/>
  <constraint name="flowValueConstr_R2B_R4A_goalGreaterValue" index="124" status="BS" slack="0" dual="-0"/>
  <constraint name="flowValueConstr_R2B_R4A_goalSmallerValue" index="125" status="LL" slack="0" dual="0"/>
  <constraint name="r126" index="126" status="BS" slack="-0.204545454545455" dual="-0"/>
  <constraint name="flowValueConstr_R2B_R2A_goalGreaterValue" index="127" status="BS" slack="0" dual="-0"/>
  <constraint name="flowValueConstr_R2B_R2A_goalSmallerValue" index="128" status="LL" slack="0" dual="-1.17333333333333"/>
  <constraint name="r129" index="129" status="BS" slack="-0.767045454545455" dual="-0"/>
  <constraint name="flowValueConstr_R4B_R3A_goalGreaterValue" index="130" status="BS" slack="0" dual="-0"/>
  <constraint name="flowValueConstr_R4B_R3A_goalSmallerValue" index="131" status="LL" slack="0" dual="-1.17333333333333"/>
  <constraint name="r132" index="132" status="BS" slack="-0.460227272727273" dual="-0"/>
  <constraint name="flowValueConstr_R4B_R1B_goalGreaterValue" index="133" status="LL" slack="0" dual="1.17333333333333"/>
  <constraint name="flowValueConstr_R4B_R1B_goalSmallerValue" index="134" status="BS" slack="0" dual="0"/>
  <constraint name="r135" index="135" status="BS" slack="-0.460227272727273" dual="-0"/>
  <constraint name="flowValueConstr_R4B_R3B_goalGreaterValue" index="136" status="LL" slack="0" dual="1.17333333333333"/>
  <constraint name="flowValueConstr_R4B_R3B_goalSmallerValue" index="137" status="BS" slack="0" dual="0"/>
  <constraint name="r138" index="138" status="BS" slack="-0.153409090909091" dual="-0"/>
  <constraint name="flowValueConstr_R4B_R1A_goalGreaterValue" index="139" status="BS" slack="0" dual="-0"/>
  <constraint name="flowValueConstr_R4B_R1A_goalSmallerValue" index="140" status="LL" slack="0" dual="-3.52"/>
  <constraint name="r141" index="141" status="BS" slack="-0.204545454545455" dual="-0"/>
  <constraint name="flowValueConstr_R4B_R2B_goalGreaterValue" index="142" status="LL" slack="0" dual="1.46666666666667"/>
  <constraint name="flowValueConstr_R4B_R2B_goalSmallerValue" index="143" status="BS" slack="0.818181818181818" dual="0"/>
  <constraint name="r144" index="144" status="BS" slack="-0.306818181818182" dual="-0"/>
  <constraint name="flowValueConstr_R4B_R4A_goalGreaterValue" index="145" status="BS" slack="0" dual="-0"/>
  <constraint name="flowValueConstr_R4B_R4A_goalSmallerValue" index="146" status="LL" slack="0" dual="-1.76"/>
  <constraint name="r147" index="147" status="BS" slack="-0.306818181818182" dual="-0"/>
  <constraint name="flowValueConstr_R4B_R2A_goalGreaterValue" index="148" status="LL" slack="0" dual="2.93333333333333"/>
  <constraint name="flowValueConstr_R4B_R2A_goalSmallerValue" index="149" status="BS" slack="0" dual="0"/>
  <constraint name="r150" index="150" status="BS" slack="-1.03977272727273" dual="-0"/>
  <constraint name="flowValueConstr_R4A_R3A_goalGreaterValue" index="151" status="BS" slack="-0.545454545454545" dual="-0"/>
  <constraint name="flowValueConstr_R4A_R3A_goalSmallerValue" index="152" status="LL" slack="0" dual="-1.17333333333333"/>
  <constraint name="r153" index="153" status="BS" slack="-0.460227272727273" dual="-0"/>
  <constraint name="flowValueConstr_R4A_R1B_goalGreaterValue" index="154" status="LL" slack="0" dual="1.17333333333333"/>
  <constraint name="flowValueConstr_R4A_R1B_goalSmallerValue" index="155" status="BS" slack="0" dual="0"/>
  <constraint name="r156" index="156" status="BS" slack="-0.460227272727273" dual="-0"/>
  <constraint name="flowValueConstr_R4A_R3B_goalGreaterValue" index="157" status="LL" slack="0" dual="1.17333333333333"/>
  <constraint name="flowValueConstr_R4A_R3B_goalSmallerValue" index="158" status="BS" slack="0" dual="0"/>
  <constraint name="r159" index="159" status="BS" slack="-0.153409090909091" dual="-0"/>
  <constraint name="flowValueConstr_R4A_R1A_goalGreaterValue" index="160" status="BS" slack="0" dual="-0"/>
  <constraint name="flowValueConstr_R4A_R1A_goalSmallerValue" index="161" status="LL" slack="0" dual="-3.52"/>
  <constraint name="r162" index="162" status="BS" slack="-0.318181818181819" dual="-0"/>
  <constraint name="flowValueConstr_R4A_R2B_goalGreaterValue" index="163" status="LL" slack="0" dual="1.46666666666667"/>
  <constraint name="flowValueConstr_R4A_R2B_goalSmallerValue" index="164" status="BS" slack="0.59090909090909" dual="0"/>
  <constraint name="r165" index="165" status="BS" slack="0" dual="-0"/>
  <constraint name="flowValueConstr_R4A_R4B_goalGreaterValue" index="166" status="BS" slack="0" dual="-0"/>
  <constraint name="flowValueConstr_R4A_R4B_goalSmallerValue" index="167" status="BS" slack="0" dual="0"/>
  <constraint name="r168" index="168" status="BS" slack="-0.261363636363636" dual="-0"/>
  <constraint name="flowValueConstr_R4A_R2A_goalGreaterValue" index="169" status="LL" slack="0" dual="2.93333333333333"/>
  <constraint name="flowValueConstr_R4A_R2A_goalSmallerValue" index="170" status="BS" slack="0.0909090909090914" dual="0"/>
  <constraint name="r171" index="171" status="BS" slack="-0.511363636363636" dual="-0"/>
  <constraint name="flowValueConstr_R2A_R3A_goalGreaterValue" index="172" status="LL" slack="0" dual="0.22"/>
  <constraint name="flowValueConstr_R2A_R3A_goalSmallerValue" index="173" status="LL" slack="0" dual="-1.54"/>
  <constraint name="r174" index="174" status="LL" slack="0" dual="0.44"/>
  <constraint name="flowValueConstr_R2A_R1B_goalGreaterValue" index="175" status="LL" slack="0" dual="2.93333333333333"/>
  <constraint name="flowValueConstr_R2A_R1B_goalSmallerValue" index="176" status="BS" slack="0.613636363636364" dual="0"/>
  <constraint name="r177" index="177" status="BS" slack="-0.306818181818182" dual="-0"/>
  <constraint name="flowValueConstr_R2A_R3B_goalGreaterValue" index="178" status="LL" slack="0" dual="1.02666666666667"/>
  <constraint name="flowValueConstr_R2A_R3B_goalSmallerValue" index="179" status="BS" slack="0" dual="0"/>
  <constraint name="r180" index="180" status="BS" slack="-0.102272727272727" dual="-0"/>
  <constraint name="flowValueConstr_R2A_R1A_goalGreaterValue" index="181" status="BS" slack="0" dual="-0"/>
  <constraint name="flowValueConstr_R2A_R1A_goalSmallerValue" index="182" status="LL" slack="0" dual="-1.32"/>
  <constraint name="r183" index="183" status="BS" slack="-0.670454545454546" dual="-0"/>
  <constraint name="flowValueConstr_R2A_R2B_goalGreaterValue" index="184" status="BS" slack="-0.522727272727273" dual="-0"/>
  <constraint name="flowValueConstr_R2A_R2B_goalSmallerValue" index="185" status="LL" slack="0" dual="-2.2"/>
  <constraint name="r186" index="186" status="BS" slack="0" dual="-0"/>
  <constraint name="flowValueConstr_R2A_R4B_goalGreaterValue" index="187" status="BS" slack="0" dual="-0"/>
  <constraint name="flowValueConstr_R2A_R4B_goalSmallerValue" index="188" status="BS" slack="0" dual="0"/>
  <constraint name="r189" index="189" status="BS" slack="-0.204545454545455" dual="-0"/>
  <constraint name="flowValueConstr_R2A_R4A_goalGreaterValue" index="190" status="LL" slack="0" dual="0.44"/>
  <constraint name="flowValueConstr_R2A_R4A_goalSmallerValue" index="191" status="BS" slack="0" dual="0"/>
 </linearConstraints>
 <variables>
  <variable name="goalVariableDifference_R3A_R1B" index="0" status="BS" value="0.306666666666667" reducedCost="0"/>
  <variable name="goalVariableDifference_R3A_R3B" index="1" status="BS" value="0.420000000000001" reducedCost="0"/>
  <variable name="goalVariableDifference_R3A_R1A" index="2" status="BS" value="0.52" reducedCost="0"/>
  <variable name="goalVariableDifference_R3A_R2B" index="3" status="BS" value="0.26" reducedCost="0"/>
  <variable name="goalVariableDifference_R3A_R4B" index="4" status="LL" value="0" reducedCost="1"/>
  <variable name="goalVariableDifference_R3A_R4A" index="5" status="BS" value="0.35" reducedCost="0"/>
  <variable name="goalVariableDifference_R3A_R2A" index="6" status="LL" value="0" reducedCost="0.666666666666667"/>
  <variable name="goalVariableDifference_R1B_R3A" index="7" status="LL" value="0" reducedCost="1"/>
  <variable name="goalVariableDifference_R1B_R3B" index="8" status="LL" value="0" reducedCost="1"/>
  <variable name="goalVariableDifference_R1B_R1A" index="9" status="LL" value="0" reducedCost="1"/>
  <variable name="goalVariableDifference_R1B_R2B" index="10" status="LL" value="0" reducedCost="1"/>
  <variable name="goalVariableDifference_R1B_R4B" index="11" status="LL" value="0" reducedCost="1"/>
  <variable name="goalVariableDifference_R1B_R4A" index="12" status="LL" value="0" reducedCost="1"/>
  <variable name="goalVariableDifference_R1B_R2A" index="13" status="LL" value="0" reducedCost="1"/>
  <variable name="goalVariableDifference_R3B_R3A" index="14" status="LL" value="0" reducedCost="1"/>
  <variable name="goalVariableDifference_R3B_R1B" index="15" status="LL" value="0" reducedCost="1"/>
  <variable name="goalVariableDifference_R3B_R1A" index="16" status="LL" value="0" reducedCost="1"/>
  <variable name="goalVariableDifference_R3B_R2B" index="17" status="LL" value="0" reducedCost="1"/>
  <variable name="goalVariableDifference_R3B_R4B" index="18" status="LL" value="0" reducedCost="1"/>
  <variable name="goalVariableDifference_R3B_R4A" index="19" status="LL" value="0" reducedCost="1"/>
  <variable name="goalVariableDifference_R3B_R2A" index="20" status="LL" value="0" reducedCost="1"/>
  <variable name="goalVariableDifference_R1A_R3A" index="21" status="BS" value="0" reducedCost="0"/>
  <variable name="goalVariableDifference_R1A_R1B" index="22" status="BS" value="0.52" reducedCost="0"/>
  <variable name="goalVariableDifference_R1A_R3B" index="23" status="BS" value="0.9" reducedCost="0"/>
  <variable name="goalVariableDifference_R1A_R2B" index="24" status="BS" value="0.0499999999999996" reducedCost="0"/>
  <variable name="goalVariableDifference_R1A_R4B" index="25" status="LL" value="0" reducedCost="1"/>
  <variable name="goalVariableDifference_R1A_R4A" index="26" status="BS" value="0.229999999999999" reducedCost="0"/>
  <variable name="goalVariableDifference_R1A_R2A" index="27" status="LL" value="0" reducedCost="0.666666666666667"/>
  <variable name="goalVariableDifference_R2B_R3A" index="28" status="BS" value="0.82" reducedCost="0"/>
  <variable name="goalVariableDifference_R2B_R1B" index="29" status="BS" value="0.833333333333332" reducedCost="0"/>
  <variable name="goalVariableDifference_R2B_R3B" index="30" status="LL" value="0" reducedCost="0.8"/>
  <variable name="goalVariableDifference_R2B_R1A" index="31" status="LL" value="0" reducedCost="0.8"/>
  <variable name="goalVariableDifference_R2B_R4B" index="32" status="LL" value="0" reducedCost="1"/>
  <variable name="goalVariableDifference_R2B_R4A" index="33" status="LL" value="0" reducedCost="1"/>
  <variable name="goalVariableDifference_R2B_R2A" index="34" status="LL" value="0" reducedCost="0.733333333333333"/>
  <variable name="goalVariableDifference_R4B_R3A" index="35" status="LL" value="0" reducedCost="0"/>
  <variable name="goalVariableDifference_R4B_R1B" index="36" status="LL" value="0" reducedCost="0.4"/>
  <variable name="goalVariableDifference_R4B_R3B" index="37" status="LL" value="0" reducedCost="0.4"/>
  <variable name="goalVariableDifference_R4B_R1A" index="38" status="LL" value="0" reducedCost="0.4"/>
  <variable name="goalVariableDifference_R4B_R2B" index="39" status="BS" value="0.6" reducedCost="0"/>
  <variable name="goalVariableDifference_R4B_R4A" index="40" status="LL" value="0" reducedCost="0.4"/>
  <variable name="goalVariableDifference_R4B_R2A" index="41" status="LL" value="0" reducedCost="0"/>
  <variable name="goalVariableDifference_R4A_R3A" index="42" status="BS" value="0.32" reducedCost="0"/>
  <variable name="goalVariableDifference_R4A_R1B" index="43" status="LL" value="0" reducedCost="0.4"/>
  <variable name="goalVariableDifference_R4A_R3B" index="44" status="LL" value="0" reducedCost="0.4"/>
  <variable name="goalVariableDifference_R4A_R1A" index="45" status="LL" value="0" reducedCost="0.4"/>
  <variable name="goalVariableDifference_R4A_R2B" index="46" status="BS" value="0.433333333333332" reducedCost="0"/>
  <variable name="goalVariableDifference_R4A_R4B" index="47" status="LL" value="0" reducedCost="1"/>
  <variable name="goalVariableDifference_R4A_R2A" index="48" status="BS" value="0.133333333333334" reducedCost="0"/>
  <variable name="goalVariableDifference_R2A_R3A" index="49" status="BS" value="0" reducedCost="0"/>
  <variable name="goalVariableDifference_R2A_R1B" index="50" status="BS" value="0.9" reducedCost="0"/>
  <variable name="goalVariableDifference_R2A_R3B" index="51" status="LL" value="0" reducedCost="0.65"/>
  <variable name="goalVariableDifference_R2A_R1A" index="52" status="LL" value="0" reducedCost="0.85"/>
  <variable name="goalVariableDifference_R2A_R2B" index="53" status="BS" value="0.575" reducedCost="0"/>
  <variable name="goalVariableDifference_R2A_R4B" index="54" status="LL" value="0" reducedCost="1"/>
  <variable name="goalVariableDifference_R2A_R4A" index="55" status="LL" value="0" reducedCost="0.9"/>
  <variable name="K_R1A_R4A_P_BB1_BB4" index="56" status="BS" value="0" reducedCost="0"/>
  <variable name="K_R1A_R4A_P_BB1_BB2_BB3_BB4" index="57" status="BS" value="0.4375" reducedCost="0"/>
  <variable name="K_R1A_R4B_P_BB1_BB4" index="58" status="LL" value="0" reducedCost="3.52"/>
  <variable name="K_R1A_R4B_P_BB1_BB2_BB3_BB4" index="59" status="LL" value="0" reducedCost="3.52"/>
  <variable name="K_R1A_R3B_P_BB1_BB2_BB3" index="60" status="BS" value="0.0852272727272727" reducedCost="0"/>
  <variable name="K_R1A_R3B_P_BB1_BB4_BB3" index="61" status="LL" value="0" reducedCost="2.34666666666667"/>
  <variable name="K_R1A_R3A_P_BB1_BB2_BB3" index="62" status="BS" value="1.42045454545455" reducedCost="0"/>
  <variable name="K_R1A_R3A_P_BB1_BB4_BB3" index="63" status="LL" value="0" reducedCost="2.34666666666667"/>
  <variable name="K_R1A_R2B_P_BB1_BB4_BB3_BB2" index="64" status="LL" value="0" reducedCost="5.86666666666667"/>
  <variable name="K_R1A_R2B_P_BB1_BB2" index="65" status="BS" value="1.19318181818182" reducedCost="0"/>
  <variable name="K_R1A_R2A_P_BB1_BB4_BB3_BB2" index="66" status="LL" value="0" reducedCost="5.86666666666667"/>
  <variable name="K_R1A_R2A_P_BB1_BB2" index="67" status="BS" value="0.568181818181818" reducedCost="0"/>
  <variable name="K_R1A_R1B_P_BB1" index="68" status="BS" value="1.29545454545455" reducedCost="0"/>
  <variable name="K_R3B_R1B_P_BB3_BB4_BB1" index="69" status="LL" value="0" reducedCost="4.69333333333333"/>
  <variable name="K_R3B_R1A_P_BB3_BB4_BB1" index="70" status="BS" value="0" reducedCost="0"/>
  <variable name="K_R3A_R1B_P_BB3_BB4_BB1" index="71" status="BS" value="0.59090909090909" reducedCost="0"/>
  <variable name="K_R3A_R1A_P_BB3_BB4_BB1" index="72" status="BS" value="0.431818181818182" reducedCost="0"/>
  <variable name="K_R3B_R4B_P_BB3_BB4" index="73" status="LL" value="0" reducedCost="3.52"/>
  <variable name="K_R3B_R4A_P_BB3_BB4" index="74" status="LL" value="0" reducedCost="1.76"/>
  <variable name="K_R3A_R4A_P_BB3_BB4" index="75" status="BS" value="0.767045454545454" reducedCost="0"/>
  <variable name="K_R3A_R4B_P_BB3_BB4" index="76" status="BS" value="0" reducedCost="0"/>
  <variable name="K_R2A_R4A_P_BB2_BB3_BB4" index="77" status="BS" value="0.227272727272727" reducedCost="0"/>
  <variable name="K_R2A_R4B_P_BB2_BB3_BB4" index="78" status="LL" value="0" reducedCost="2.2"/>
  <variable name="K_R2B_R4B_P_BB2_BB3_BB4" index="79" status="LL" value="0" reducedCost="1.76"/>
  <variable name="K_R2B_R4A_P_BB2_BB3_BB4" index="80" status="BS" value="0.227272727272727" reducedCost="0"/>
  <variable name="K_R2B_R1A_P_BB2_BB3_BB4_BB1" index="81" status="BS" value="0.113636363636364" reducedCost="0"/>
  <variable name="K_R2B_R1B_P_BB2_BB3_BB4_BB1" index="82" status="BS" value="0.0568181818181821" reducedCost="0"/>
  <variable name="K_R2A_R1A_P_BB2_BB3_BB4_BB1" index="83" status="BS" value="0.113636363636364" reducedCost="0"/>
  <variable name="K_R2A_R1B_P_BB2_BB3_BB4_BB1" index="84" status="BS" value="0.0340909090909091" reducedCost="0"/>
  <variable name="K_R3B_R2B_P_BB3_BB4_BB1_BB2" index="85" status="LL" value="0" reducedCost="4.98666666666667"/>
  <variable name="K_R3B_R2A_P_BB3_BB4_BB1_BB2" index="86" status="LL" value="0" reducedCost="6.45333333333333"/>
  <variable name="K_R3A_R2A_P_BB3_BB4_BB1_BB2" index="87" status="LL" value="0" reducedCost="2.34666666666667"/>
  <variable name="K_R3A_R2B_P_BB3_BB4_BB1_BB2" index="88" status="LL" value="0" reducedCost="2.34666666666667"/>
  <variable name="K_R1B_R4B_P_BB1_BB2_BB3_BB4" index="89" status="LL" value="0" reducedCost="7.62666666666667"/>
  <variable name="K_R1B_R4A_P_BB1_BB2_BB3_BB4" index="90" status="LL" value="0" reducedCost="5.86666666666667"/>
  <variable name="K_R1B_R3B_P_BB1_BB2_BB3" index="91" status="LL" value="0" reducedCost="6.45333333333333"/>
  <variable name="K_R1B_R3B_P_BB1_BB4_BB3" index="92" status="LL" value="0" reducedCost="8.8"/>
  <variable name="K_R1B_R3A_P_BB1_BB2_BB3" index="93" status="LL" value="0" reducedCost="4.10666666666667"/>
  <variable name="K_R1B_R3A_P_BB1_BB4_BB3" index="94" status="LL" value="0" reducedCost="6.45333333333333"/>
  <variable name="K_R1B_R4B_P_BB1_BB4" index="95" status="LL" value="0" reducedCost="7.62666666666667"/>
  <variable name="K_R1B_R4A_P_BB1_BB4" index="96" status="LL" value="0" reducedCost="5.86666666666667"/>
  <variable name="K_R1B_R2B_P_BB1_BB4_BB3_BB2" index="97" status="LL" value="0" reducedCost="9.09333333333334"/>
  <variable name="K_R1B_R2B_P_BB1_BB2" index="98" status="LL" value="0" reducedCost="3.22666666666667"/>
  <variable name="K_R1B_R2A_P_BB1_BB4_BB3_BB2" index="99" status="LL" value="0" reducedCost="10.56"/>
  <variable name="K_R1B_R2A_P_BB1_BB2" index="100" status="LL" value="0" reducedCost="4.69333333333333"/>
  <variable name="K_R1B_R1A_P_BB1" index="101" status="BS" value="0" reducedCost="0"/>
  <variable name="K_R3B_R2B_P_BB3_BB2" index="102" status="LL" value="0" reducedCost="2.64"/>
  <variable name="K_R3B_R2A_P_BB3_BB2" index="103" status="LL" value="0" reducedCost="4.10666666666667"/>
  <variable name="K_R3A_R2A_P_BB3_BB2" index="104" status="BS" value="0.568181818181818" reducedCost="0"/>
  <variable name="K_R3A_R2B_P_BB3_BB2" index="105" status="BS" value="1.43181818181818" reducedCost="0"/>
  <variable name="K_R3B_R4B_P_BB3_BB2_BB1_BB4" index="106" status="LL" value="0" reducedCost="12.9066666666667"/>
  <variable name="K_R3B_R4A_P_BB3_BB2_BB1_BB4" index="107" status="LL" value="0" reducedCost="11.1466666666667"/>
  <variable name="K_R3A_R4A_P_BB3_BB2_BB1_BB4" index="108" status="LL" value="0" reducedCost="9.38666666666667"/>
  <variable name="K_R3A_R4B_P_BB3_BB2_BB1_BB4" index="109" status="LL" value="0" reducedCost="9.38666666666667"/>
  <variable name="K_R3B_R1B_P_BB3_BB2_BB1" index="110" status="LL" value="0" reducedCost="8.21333333333333"/>
  <variable name="K_R3B_R1A_P_BB3_BB2_BB1" index="111" status="LL" value="0" reducedCost="3.52"/>
  <variable name="K_R3A_R1B_P_BB3_BB2_BB1" index="112" status="LL" value="0" reducedCost="3.52"/>
  <variable name="K_R3A_R1A_P_BB3_BB2_BB1" index="113" status="LL" value="0" reducedCost="3.52"/>
  <variable name="K_R4A_R1B_P_BB4_BB3_BB2_BB1" index="114" status="LL" value="0" reducedCost="5.86666666666667"/>
  <variable name="K_R4A_R1A_P_BB4_BB3_BB2_BB1" index="115" status="LL" value="0" reducedCost="5.86666666666667"/>
  <variable name="K_R4B_R1A_P_BB4_BB3_BB2_BB1" index="116" status="LL" value="0" reducedCost="5.86666666666667"/>
  <variable name="K_R4B_R1B_P_BB4_BB3_BB2_BB1" index="117" status="LL" value="0" reducedCost="5.86666666666667"/>
  <variable name="K_R4B_R2B_P_BB4_BB3_BB2" index="118" status="LL" value="0" reducedCost="0"/>
  <variable name="K_R4B_R2A_P_BB4_BB3_BB2" index="119" status="LL" value="0" reducedCost="0"/>
  <variable name="K_R4A_R2A_P_BB4_BB3_BB2" index="120" status="LL" value="0" reducedCost="0"/>
  <variable name="K_R4A_R2B_P_BB4_BB3_BB2" index="121" status="LL" value="0" reducedCost="0"/>
  <variable name="K_R2A_R2B_P_BB2" index="122" status="BS" value="0.715909090909091" reducedCost="0"/>
  <variable name="K_R2A_R3B_P_BB2_BB3" index="123" status="BS" value="0.340909090909091" reducedCost="0"/>
  <variable name="K_R2A_R3B_P_BB2_BB1_BB4_BB3" index="124" status="LL" value="0" reducedCost="8.21333333333333"/>
  <variable name="K_R2A_R3A_P_BB2_BB3" index="125" status="BS" value="0.568181818181818" reducedCost="0"/>
  <variable name="K_R2A_R3A_P_BB2_BB1_BB4_BB3" index="126" status="LL" value="0" reducedCost="8.21333333333333"/>
  <variable name="K_R2A_R4A_P_BB2_BB1_BB4" index="127" status="LL" value="0" reducedCost="5.86666666666667"/>
  <variable name="K_R2A_R4B_P_BB2_BB1_BB4" index="128" status="LL" value="0" reducedCost="8.06666666666667"/>
  <variable name="K_R2A_R1A_P_BB2_BB1" index="129" status="BS" value="0" reducedCost="0"/>
  <variable name="K_R2A_R1B_P_BB2_BB1" index="130" status="LL" value="0" reducedCost="0"/>
  <variable name="K_R3A_R3B_P_BB3" index="131" status="BS" value="1.21022727272727" reducedCost="0"/>
  <variable name="K_R4B_R3A_P_BB4_BB3" index="132" status="BS" value="0.852272727272727" reducedCost="0"/>
  <variable name="K_R4B_R3A_P_BB4_BB1_BB2_BB3" index="133" status="LL" value="0" reducedCost="3.52"/>
  <variable name="K_R4B_R3B_P_BB4_BB3" index="134" status="BS" value="0.511363636363636" reducedCost="0"/>
  <variable name="K_R4B_R3B_P_BB4_BB1_BB2_BB3" index="135" status="LL" value="0" reducedCost="3.52"/>
  <variable name="K_R4B_R4A_P_BB4" index="136" status="BS" value="0.340909090909091" reducedCost="0"/>
  <variable name="K_R4B_R2B_P_BB4_BB1_BB2" index="137" status="BS" value="0.272727272727273" reducedCost="0"/>
  <variable name="K_R4B_R2A_P_BB4_BB1_BB2" index="138" status="BS" value="0.340909090909091" reducedCost="0"/>
  <variable name="K_R4B_R1A_P_BB4_BB1" index="139" status="BS" value="0.170454545454545" reducedCost="0"/>
  <variable name="K_R4B_R1B_P_BB4_BB1" index="140" status="BS" value="0.511363636363636" reducedCost="0"/>
  <variable name="K_R4A_R3B_P_BB4_BB3" index="141" status="BS" value="0.511363636363636" reducedCost="0"/>
  <variable name="K_R4A_R3A_P_BB4_BB3" index="142" status="BS" value="1.125" reducedCost="0"/>
  <variable name="K_R2B_R3A_P_BB2_BB1_BB4_BB3" index="143" status="LL" value="0" reducedCost="8.21333333333333"/>
  <variable name="K_R2B_R3B_P_BB2_BB1_BB4_BB3" index="144" status="LL" value="0" reducedCost="8.21333333333333"/>
  <variable name="K_R2B_R3A_P_BB2_BB3" index="145" status="BS" value="1.03409090909091" reducedCost="0"/>
  <variable name="K_R2B_R3B_P_BB2_BB3" index="146" status="BS" value="0.340909090909091" reducedCost="0"/>
  <variable name="K_R2B_R2A_P_BB2" index="147" status="BS" value="0.227272727272727" reducedCost="0"/>
  <variable name="K_R2B_R1A_P_BB2_BB1" index="148" status="LL" value="0" reducedCost="0"/>
  <variable name="K_R2B_R1B_P_BB2_BB1" index="149" status="LL" value="0" reducedCost="0"/>
  <variable name="K_R2B_R4B_P_BB2_BB1_BB4" index="150" status="LL" value="0" reducedCost="7.62666666666667"/>
  <variable name="K_R2B_R4A_P_BB2_BB1_BB4" index="151" status="LL" value="0" reducedCost="5.86666666666667"/>
  <variable name="K_R4A_R3B_P_BB4_BB1_BB2_BB3" index="152" status="LL" value="0" reducedCost="3.52"/>
  <variable name="K_R4A_R3A_P_BB4_BB1_BB2_BB3" index="153" status="LL" value="0" reducedCost="3.52"/>
  <variable name="K_R4A_R2A_P_BB4_BB1_BB2" index="154" status="BS" value="0.295454545454545" reducedCost="0"/>
  <variable name="K_R4A_R2B_P_BB4_BB1_BB2" index="155" status="BS" value="0.386363636363637" reducedCost="0"/>
  <variable name="K_R3B_R3A_P_BB3" index="156" status="LL" value="0" reducedCost="0"/>
  <variable name="K_R4A_R1A_P_BB4_BB1" index="157" status="BS" value="0.170454545454545" reducedCost="0"/>
  <variable name="K_R4A_R4B_P_BB4" index="158" status="LL" value="0" reducedCost="-4.44089209850063e-16"/>
  <variable name="K_R4A_R1B_P_BB4_BB1" index="159" status="BS" value="0.511363636363636" reducedCost="0"/>
 </variables>
</CPLEXSolution>
